
Gurobi 7.0.2 (win32, Java) logging started 06/10/17 12:16:47

Optimize a model with 64 rows, 24 columns and 176 nonzeros
Coefficient statistics:
  Matrix range     [1e+00, 1e+02]
  Objective range  [1e-07, 5e-01]
  Bounds range     [1e+00, 1e+00]
  RHS range        [0e+00, 0e+00]
Presolve removed 16 rows and 6 columns
Presolve time: 0.00s
Presolved: 48 rows, 18 columns, 144 nonzeros

Iteration    Objective       Primal Inf.    Dual Inf.      Time
       0    0.0000000e+00   0.000000e+00   0.000000e+00      0s
       0    0.0000000e+00   0.000000e+00   0.000000e+00      0s

Solved in 0 iterations and 0.00 seconds
Optimal objective  0.000000000e+00

Gurobi 7.0.2 (win32, Java) logging started 06/10/17 12:16:58

Optimize a model with 64 rows, 24 columns and 176 nonzeros
Coefficient statistics:
  Matrix range     [1e+00, 1e+02]
  Objective range  [1e-07, 5e-01]
  Bounds range     [1e+00, 1e+00]
  RHS range        [0e+00, 0e+00]
Presolve removed 16 rows and 6 columns
Presolve time: 0.00s
Presolved: 48 rows, 18 columns, 144 nonzeros

Iteration    Objective       Primal Inf.    Dual Inf.      Time
       0    0.0000000e+00   0.000000e+00   0.000000e+00      0s
       0    0.0000000e+00   0.000000e+00   0.000000e+00      0s

Solved in 0 iterations and 0.01 seconds
Optimal objective  0.000000000e+00

Gurobi 7.0.2 (win32, Java) logging started 06/10/17 12:17:00

Optimize a model with 64 rows, 24 columns and 176 nonzeros
Coefficient statistics:
  Matrix range     [1e+00, 1e+02]
  Objective range  [1e-07, 5e-01]
  Bounds range     [1e+00, 1e+00]
  RHS range        [0e+00, 0e+00]
Presolve removed 16 rows and 6 columns
Presolve time: 0.00s
Presolved: 48 rows, 18 columns, 144 nonzeros

Iteration    Objective       Primal Inf.    Dual Inf.      Time
       0    0.0000000e+00   0.000000e+00   0.000000e+00      0s
       0    0.0000000e+00   0.000000e+00   0.000000e+00      0s

Solved in 0 iterations and 0.00 seconds
Optimal objective  0.000000000e+00

Gurobi 7.0.2 (win32, Java) logging started 06/10/17 12:17:58

Optimize a model with 100 rows, 40 columns and 280 nonzeros
Coefficient statistics:
  Matrix range     [1e+00, 9e+00]
  Objective range  [1e-03, 5e-01]
  Bounds range     [1e+00, 1e+00]
  RHS range        [0e+00, 0e+00]
Presolve removed 54 rows and 24 columns
Presolve time: 0.00s
Presolved: 46 rows, 16 columns, 148 nonzeros

Iteration    Objective       Primal Inf.    Dual Inf.      Time
       0    0.0000000e+00   0.000000e+00   0.000000e+00      0s
       0    0.0000000e+00   0.000000e+00   0.000000e+00      0s

Solved in 0 iterations and 0.00 seconds
Optimal objective  0.000000000e+00

Gurobi 7.0.2 (win32, Java) logging started 06/10/17 12:20:23

Optimize a model with 1296 rows, 144 columns and 4320 nonzeros
Coefficient statistics:
  Matrix range     [1e+00, 1e+02]
  Objective range  [0e+00, 0e+00]
  Bounds range     [1e+00, 1e+00]
  RHS range        [0e+00, 0e+00]
Presolve removed 30 rows and 159 columns
Presolve time: 0.00s
Presolved: 114 rows, 1245 columns, 4161 nonzeros

Iteration    Objective       Primal Inf.    Dual Inf.      Time
       0   -0.0000000e+00   0.000000e+00   0.000000e+00      0s

Solved in 0 iterations and 0.01 seconds
Optimal objective -0.000000000e+00

Gurobi 7.0.2 (win32, Java) logging started 06/10/17 12:29:24

Optimize a model with 1296 rows, 144 columns and 4320 nonzeros
Coefficient statistics:
  Matrix range     [1e+00, 1e+02]
  Objective range  [1e-07, 2e-01]
  Bounds range     [1e+00, 1e+00]
  RHS range        [0e+00, 0e+00]
Presolve removed 30 rows and 159 columns
Presolve time: 0.00s
Presolved: 114 rows, 1245 columns, 4161 nonzeros

Iteration    Objective       Primal Inf.    Dual Inf.      Time
       0    9.8000000e-06   1.541982e-01   1.397656e+07      0s
      46    9.8000000e+00   0.000000e+00   0.000000e+00      0s

Solved in 46 iterations and 0.01 seconds
Optimal objective  9.800000000e+00

Gurobi 7.0.2 (win32, Java) logging started 06/10/17 12:30:35

Optimize a model with 1296 rows, 144 columns and 4320 nonzeros
Coefficient statistics:
  Matrix range     [1e+00, 1e+02]
  Objective range  [1e-05, 1e-01]
  Bounds range     [1e+00, 1e+00]
  RHS range        [0e+00, 0e+00]
Presolve removed 30 rows and 159 columns
Presolve time: 0.00s
Presolved: 114 rows, 1245 columns, 4161 nonzeros

Iteration    Objective       Primal Inf.    Dual Inf.      Time
       0    1.2544000e-03   1.256551e-01   1.397656e+07      0s
      46    1.9600000e+01   0.000000e+00   0.000000e+00      0s

Solved in 46 iterations and 0.01 seconds
Optimal objective  1.960000000e+01

Gurobi 7.0.2 (win32, Java) logging started 06/10/17 12:30:54

Optimize a model with 1296 rows, 144 columns and 4320 nonzeros
Coefficient statistics:
  Matrix range     [1e+00, 1e+02]
  Objective range  [2e-04, 1e-01]
  Bounds range     [1e+00, 1e+00]
  RHS range        [0e+00, 0e+00]
Presolve removed 30 rows and 159 columns
Presolve time: 0.00s
Presolved: 114 rows, 1245 columns, 4161 nonzeros

Iteration    Objective       Primal Inf.    Dual Inf.      Time
       0    2.1432600e-02   8.422108e-02   1.397656e+07      0s
      46    2.9400000e+01   0.000000e+00   0.000000e+00      0s

Solved in 46 iterations and 0.01 seconds
Optimal objective  2.940000000e+01

Gurobi 7.0.2 (win32, Java) logging started 06/10/17 12:33:56

Optimize a model with 1296 rows, 144 columns and 4320 nonzeros
Coefficient statistics:
  Matrix range     [1e+00, 9e+01]
  Objective range  [2e-04, 1e-01]
  Bounds range     [1e+00, 1e+00]
  RHS range        [0e+00, 0e+00]
Presolve removed 30 rows and 214 columns
Presolve time: 0.00s
Presolved: 114 rows, 1190 columns, 3941 nonzeros

Iteration    Objective       Primal Inf.    Dual Inf.      Time
       0    7.3631632e+01   0.000000e+00   4.290000e+03      0s
      53    2.7300000e+01   0.000000e+00   0.000000e+00      0s

Solved in 53 iterations and 0.01 seconds
Optimal objective  2.730000000e+01

Gurobi 7.0.2 (win32, Java) logging started 06/10/17 12:40:16

Optimize a model with 1296 rows, 144 columns and 4320 nonzeros
Coefficient statistics:
  Matrix range     [1e+00, 1e+02]
  Objective range  [1e-05, 1e-01]
  Bounds range     [1e+00, 1e+00]
  RHS range        [0e+00, 0e+00]
Presolve removed 30 rows and 159 columns
Presolve time: 0.00s
Presolved: 114 rows, 1245 columns, 4161 nonzeros

Iteration    Objective       Primal Inf.    Dual Inf.      Time
       0    1.2544000e-03   1.151031e-01   1.434375e+07      0s
      47    1.9600000e+01   0.000000e+00   0.000000e+00      0s

Solved in 47 iterations and 0.01 seconds
Optimal objective  1.960000000e+01

Gurobi 7.0.2 (win32, Java) logging started 06/10/17 15:11:46

Optimize a model with 1296 rows, 144 columns and 8520 nonzeros
Coefficient statistics:
  Matrix range     [1e+00, 1e+02]
  Objective range  [1e-05, 1e-01]
  Bounds range     [1e+00, 1e+00]
  RHS range        [0e+00, 0e+00]
Presolve removed 24 rows and 24 columns
Presolve time: 0.00s
Presolved: 120 rows, 1380 columns, 8604 nonzeros

Iteration    Objective       Primal Inf.    Dual Inf.      Time
       0    3.3600000e+01   0.000000e+00   1.645600e+04      0s
     489    2.2618798e+01   0.000000e+00   0.000000e+00      0s

Solved in 489 iterations and 0.02 seconds
Optimal objective  2.261879820e+01

Gurobi 7.0.2 (win32, Java) logging started 06/10/17 15:16:53

Optimize a model with 1296 rows, 144 columns and 8520 nonzeros
Coefficient statistics:
  Matrix range     [1e+00, 1e+02]
  Objective range  [1e-05, 1e-01]
  Bounds range     [1e+00, 1e+00]
  RHS range        [0e+00, 0e+00]
Presolve removed 24 rows and 24 columns
Presolve time: 0.00s
Presolved: 120 rows, 1380 columns, 8604 nonzeros

Iteration    Objective       Primal Inf.    Dual Inf.      Time
       0    3.3600000e+01   0.000000e+00   1.645600e+04      0s
     489    2.2618798e+01   0.000000e+00   0.000000e+00      0s

Solved in 489 iterations and 0.01 seconds
Optimal objective  2.261879820e+01

Gurobi 7.0.2 (win32, Java) logging started 06/10/17 15:20:12

Optimize a model with 16 rows, 12 columns and 70 nonzeros
Coefficient statistics:
  Matrix range     [1e+00, 2e+01]
  Objective range  [3e-02, 4e-01]
  Bounds range     [1e+00, 1e+00]
  RHS range        [0e+00, 0e+00]
Presolve removed 0 rows and 2 columns
Presolve time: 0.00s
Presolved: 16 rows, 10 columns, 70 nonzeros

Iteration    Objective       Primal Inf.    Dual Inf.      Time
       0    1.2313300e+01   5.443313e+00   0.000000e+00      0s
       9    1.0500000e+01   0.000000e+00   0.000000e+00      0s

Solved in 9 iterations and 0.00 seconds
Optimal objective  1.050000000e+01

Gurobi 7.0.2 (win32, Java) logging started 06/10/17 20:23:31

Optimize a model with 64 rows, 32 columns and 480 nonzeros
Coefficient statistics:
  Matrix range     [1e+00, 2e+00]
  Objective range  [1e-03, 7e-01]
  Bounds range     [1e+00, 1e+00]
  RHS range        [0e+00, 0e+00]
Presolve time: 0.00s
Presolved: 64 rows, 32 columns, 480 nonzeros

Iteration    Objective       Primal Inf.    Dual Inf.      Time
       0   -1.0000000e+30   4.500000e+30   1.000000e+00      0s
      15   -3.0000000e+00   0.000000e+00   0.000000e+00      0s

Solved in 15 iterations and 0.00 seconds
Optimal objective -3.000000000e+00

Gurobi 7.0.2 (win32, Java) logging started 06/10/17 20:24:00

Optimize a model with 64 rows, 32 columns and 480 nonzeros
Coefficient statistics:
  Matrix range     [1e+00, 2e+00]
  Objective range  [1e-03, 7e-01]
  Bounds range     [1e+00, 1e+00]
  RHS range        [0e+00, 0e+00]
Presolve time: 0.00s
Presolved: 64 rows, 32 columns, 480 nonzeros

Iteration    Objective       Primal Inf.    Dual Inf.      Time
       0   -1.0000000e+30   4.500000e+30   1.000000e+00      0s
      19   -3.8000000e+00   0.000000e+00   0.000000e+00      0s

Solved in 19 iterations and 0.00 seconds
Optimal objective -3.800000000e+00

Gurobi 7.0.2 (win32, Java) logging started 06/10/17 20:24:14

Optimize a model with 64 rows, 32 columns and 480 nonzeros
Coefficient statistics:
  Matrix range     [1e+00, 2e+00]
  Objective range  [2e-03, 6e-01]
  Bounds range     [1e+00, 1e+00]
  RHS range        [0e+00, 0e+00]
Presolve time: 0.00s
Presolved: 64 rows, 32 columns, 480 nonzeros

Iteration    Objective       Primal Inf.    Dual Inf.      Time
       0   -1.0000000e+30   4.500000e+30   1.000000e+00      0s
      24   -4.4000000e+00   0.000000e+00   0.000000e+00      0s

Solved in 24 iterations and 0.00 seconds
Optimal objective -4.400000000e+00

Gurobi 7.0.2 (win32, Java) logging started 06/10/17 20:24:26

Optimize a model with 64 rows, 32 columns and 480 nonzeros
Coefficient statistics:
  Matrix range     [1e+00, 4e+00]
  Objective range  [2e-03, 6e-01]
  Bounds range     [1e+00, 1e+00]
  RHS range        [0e+00, 0e+00]
Presolve time: 0.00s
Presolved: 64 rows, 32 columns, 480 nonzeros

Iteration    Objective       Primal Inf.    Dual Inf.      Time
       0   -1.0000000e+30   3.500000e+30   1.000000e+00      0s
      25   -4.4000000e+00   0.000000e+00   0.000000e+00      0s

Solved in 25 iterations and 0.00 seconds
Optimal objective -4.400000000e+00

Gurobi 7.0.2 (win32, Java) logging started 06/10/17 20:27:12

Optimize a model with 64 rows, 32 columns and 480 nonzeros
Coefficient statistics:
  Matrix range     [1e+00, 2e+00]
  Objective range  [1e-03, 7e-01]
  Bounds range     [1e+00, 1e+00]
  RHS range        [0e+00, 0e+00]
Presolve time: 0.00s
Presolved: 64 rows, 32 columns, 480 nonzeros

Iteration    Objective       Primal Inf.    Dual Inf.      Time
       0    1.0000000e+30   4.500000e+30   1.000000e+00      0s
      15    3.0000000e+00   0.000000e+00   0.000000e+00      0s

Solved in 15 iterations and 0.00 seconds
Optimal objective  3.000000000e+00

Gurobi 7.0.2 (win32, Java) logging started 06/10/17 20:28:44

Optimize a model with 729 rows, 108 columns and 5724 nonzeros
Coefficient statistics:
  Matrix range     [1e+00, 9e+00]
  Objective range  [2e-03, 2e-01]
  Bounds range     [1e+00, 1e+00]
  RHS range        [0e+00, 0e+00]
Presolve time: 0.00s
Presolved: 108 rows, 810 columns, 5805 nonzeros

Iteration    Objective       Primal Inf.    Dual Inf.      Time
       0    9.1500000e+00   0.000000e+00   1.660000e+03      0s
     273    7.1000000e+00   0.000000e+00   0.000000e+00      0s

Solved in 273 iterations and 0.01 seconds
Optimal objective  7.100000000e+00

Gurobi 7.0.2 (win32, Java) logging started 06/10/17 20:30:30

Optimize a model with 16 rows, 12 columns and 84 nonzeros
Coefficient statistics:
  Matrix range     [1e+00, 3e+00]
  Objective range  [3e-01, 3e-01]
  Bounds range     [1e+00, 1e+00]
  RHS range        [0e+00, 0e+00]
Presolve time: 0.00s
Presolved: 16 rows, 12 columns, 84 nonzeros

Iteration    Objective       Primal Inf.    Dual Inf.      Time
       0    1.0000000e+30   2.000000e+30   1.000000e+00      0s
       9    2.6250000e+00   0.000000e+00   0.000000e+00      0s

Solved in 9 iterations and 0.00 seconds
Optimal objective  2.625000000e+00

Gurobi 7.0.2 (win32, Java) logging started 06/11/17 00:20:14

Optimize a model with 16 rows, 12 columns and 84 nonzeros
Coefficient statistics:
  Matrix range     [1e+00, 3e+00]
  Objective range  [3e-01, 3e-01]
  Bounds range     [1e+00, 1e+00]
  RHS range        [0e+00, 0e+00]
Presolve time: 0.00s
Presolved: 16 rows, 12 columns, 84 nonzeros

Iteration    Objective       Primal Inf.    Dual Inf.      Time
       0    1.0000000e+30   2.000000e+30   1.000000e+00      0s
       9    2.6250000e+00   0.000000e+00   0.000000e+00      0s

Solved in 9 iterations and 0.00 seconds
Optimal objective  2.625000000e+00

Gurobi 7.0.2 (win32, Java) logging started 06/11/17 00:24:03

Optimize a model with 16 rows, 12 columns and 84 nonzeros
Coefficient statistics:
  Matrix range     [1e+00, 3e+00]
  Objective range  [3e-01, 3e-01]
  Bounds range     [1e+00, 1e+00]
  RHS range        [0e+00, 0e+00]
Presolve time: 0.00s
Presolved: 16 rows, 12 columns, 84 nonzeros

Iteration    Objective       Primal Inf.    Dual Inf.      Time
       0    1.0000000e+30   2.000000e+30   1.000000e+00      0s
       9    2.6250000e+00   0.000000e+00   0.000000e+00      0s

Solved in 9 iterations and 0.00 seconds
Optimal objective  2.625000000e+00

Gurobi 7.0.2 (win32, Java) logging started 06/11/17 00:24:39

Optimize a model with 16 rows, 12 columns and 84 nonzeros
Coefficient statistics:
  Matrix range     [1e+00, 3e+00]
  Objective range  [3e-01, 3e-01]
  Bounds range     [1e+00, 1e+00]
  RHS range        [0e+00, 0e+00]
Presolve time: 0.00s
Presolved: 16 rows, 12 columns, 84 nonzeros

Iteration    Objective       Primal Inf.    Dual Inf.      Time
       0    1.0000000e+30   2.000000e+30   1.000000e+00      0s
       9    2.6250000e+00   0.000000e+00   0.000000e+00      0s

Solved in 9 iterations and 0.00 seconds
Optimal objective  2.625000000e+00

Gurobi 7.0.2 (win32, Java) logging started 06/11/17 00:25:57

Optimize a model with 16 rows, 12 columns and 84 nonzeros
Coefficient statistics:
  Matrix range     [1e+00, 3e+00]
  Objective range  [3e-01, 3e-01]
  Bounds range     [1e+00, 1e+00]
  RHS range        [0e+00, 0e+00]
Presolve time: 0.00s
Presolved: 16 rows, 12 columns, 84 nonzeros

Iteration    Objective       Primal Inf.    Dual Inf.      Time
       0    1.0000000e+30   2.000000e+30   1.000000e+00      0s
       9    2.6250000e+00   0.000000e+00   0.000000e+00      0s

Solved in 9 iterations and 0.00 seconds
Optimal objective  2.625000000e+00

Gurobi 7.0.2 (win32, Java) logging started 06/11/17 00:27:08

Optimize a model with 16 rows, 12 columns and 84 nonzeros
Coefficient statistics:
  Matrix range     [1e+00, 3e+00]
  Objective range  [3e-01, 3e-01]
  Bounds range     [1e+00, 1e+00]
  RHS range        [0e+00, 0e+00]
Presolve time: 0.00s
Presolved: 16 rows, 12 columns, 84 nonzeros

Iteration    Objective       Primal Inf.    Dual Inf.      Time
       0    1.0000000e+30   2.000000e+30   1.000000e+00      0s
       9    2.6250000e+00   0.000000e+00   0.000000e+00      0s

Solved in 9 iterations and 0.00 seconds
Optimal objective  2.625000000e+00

Gurobi 7.0.2 (win32, Java) logging started 06/11/17 00:41:34

Optimize a model with 16 rows, 12 columns and 84 nonzeros
Coefficient statistics:
  Matrix range     [1e+00, 3e+00]
  Objective range  [3e-01, 3e-01]
  Bounds range     [1e+00, 1e+00]
  RHS range        [0e+00, 0e+00]
Presolve time: 0.00s
Presolved: 16 rows, 12 columns, 84 nonzeros

Iteration    Objective       Primal Inf.    Dual Inf.      Time
       0    1.0000000e+30   2.000000e+30   1.000000e+00      0s
       9    2.6250000e+00   0.000000e+00   0.000000e+00      0s

Solved in 9 iterations and 0.00 seconds
Optimal objective  2.625000000e+00

Gurobi 7.0.2 (win32, Java) logging started 06/11/17 19:11:02

Optimize a model with 16 rows, 12 columns and 84 nonzeros
Coefficient statistics:
  Matrix range     [1e+00, 3e+00]
  Objective range  [3e-01, 3e-01]
  Bounds range     [1e+00, 1e+00]
  RHS range        [0e+00, 0e+00]
Presolve time: 0.00s
Presolved: 16 rows, 12 columns, 84 nonzeros

Iteration    Objective       Primal Inf.    Dual Inf.      Time
       0    1.0000000e+30   2.000000e+30   1.000000e+00      0s
       9    2.6250000e+00   0.000000e+00   0.000000e+00      0s

Solved in 9 iterations and 0.00 seconds
Optimal objective  2.625000000e+00

Gurobi 7.0.2 (win32, Java) logging started 06/11/17 19:18:20

Optimize a model with 16 rows, 12 columns and 84 nonzeros
Coefficient statistics:
  Matrix range     [1e+00, 3e+00]
  Objective range  [3e-01, 3e-01]
  Bounds range     [1e+00, 1e+00]
  RHS range        [0e+00, 0e+00]
Presolve time: 0.00s
Presolved: 16 rows, 12 columns, 84 nonzeros

Iteration    Objective       Primal Inf.    Dual Inf.      Time
       0    1.0000000e+30   2.000000e+30   1.000000e+00      0s
       9    2.6250000e+00   0.000000e+00   0.000000e+00      0s

Solved in 9 iterations and 0.00 seconds
Optimal objective  2.625000000e+00

Gurobi 7.0.2 (win32, Java) logging started 06/11/17 19:22:15

Optimize a model with 16 rows, 12 columns and 84 nonzeros
Coefficient statistics:
  Matrix range     [1e+00, 3e+00]
  Objective range  [3e-01, 3e-01]
  Bounds range     [1e+00, 1e+00]
  RHS range        [0e+00, 0e+00]
Presolve time: 0.00s
Presolved: 16 rows, 12 columns, 84 nonzeros

Iteration    Objective       Primal Inf.    Dual Inf.      Time
       0    1.0000000e+30   2.000000e+30   1.000000e+00      0s
       9    2.6250000e+00   0.000000e+00   0.000000e+00      0s

Solved in 9 iterations and 0.00 seconds
Optimal objective  2.625000000e+00

Gurobi 7.0.2 (win32, Java) logging started 06/11/17 21:19:40

Optimize a model with 16 rows, 12 columns and 84 nonzeros
Coefficient statistics:
  Matrix range     [1e+00, 3e+00]
  Objective range  [3e-01, 3e-01]
  Bounds range     [1e+00, 1e+00]
  RHS range        [0e+00, 0e+00]
Presolve time: 0.00s
Presolved: 16 rows, 12 columns, 84 nonzeros

Iteration    Objective       Primal Inf.    Dual Inf.      Time
       0    1.0000000e+30   2.000000e+30   1.000000e+00      0s
       9    2.6250000e+00   0.000000e+00   0.000000e+00      0s

Solved in 9 iterations and 0.00 seconds
Optimal objective  2.625000000e+00

Gurobi 7.0.2 (win32, Java) logging started 06/11/17 21:20:00

Optimize a model with 16 rows, 12 columns and 84 nonzeros
Coefficient statistics:
  Matrix range     [1e+00, 2e+00]
  Objective range  [3e-01, 3e-01]
  Bounds range     [1e+00, 1e+00]
  RHS range        [0e+00, 0e+00]
Presolve time: 0.00s
Presolved: 16 rows, 12 columns, 84 nonzeros

Iteration    Objective       Primal Inf.    Dual Inf.      Time
       0    1.0000000e+30   2.500000e+30   1.000000e+00      0s
       9    2.2500000e+00   0.000000e+00   0.000000e+00      0s

Solved in 9 iterations and 0.00 seconds
Optimal objective  2.250000000e+00

Gurobi 7.0.2 (win32, Java) logging started 06/11/17 21:24:42

Optimize a model with 16 rows, 12 columns and 84 nonzeros
Coefficient statistics:
  Matrix range     [1e+00, 3e+00]
  Objective range  [3e-01, 3e-01]
  Bounds range     [1e+00, 1e+00]
  RHS range        [0e+00, 0e+00]
Presolve time: 0.02s
Presolved: 16 rows, 12 columns, 84 nonzeros

Iteration    Objective       Primal Inf.    Dual Inf.      Time
       0    1.0000000e+30   2.000000e+30   1.000000e+00      0s
       9    2.6250000e+00   0.000000e+00   0.000000e+00      0s

Solved in 9 iterations and 0.02 seconds
Optimal objective  2.625000000e+00
